1
1 0
587 233 220
30
6 119 0 59 1 39 1 0
20 97 0 53 1 32 1 0
17 83 0 78 0 37 1 0
23 62 1 60 1 58 1 0
15 41 1 33 1 31 1 0
4 99 0 37 1 30 1 0
7 54 1 52 1 49 1 0
25 99 0 53 1 36 1 0
1 113 0 92 0 33 1 0
29 91 0 69 0 32 1 0
18 68 0 34 1 33 1 0
2 52 1 37 1 28 1 0
28 103 1 80 1 79 1 0
9 79 1 68 1 44 1 0
19 103 0 69 1 49 1 0
3 57 1 33 1 29 1 0
26 67 1 67 1 55 1 0
10 116 0 49 1 47 1 0
21 92 1 63 1 50 1 0
8 75 0 45 1 35 1 0
24 101 0 46 1 25 1 0
27 99 0 46 1 38 1 0
5 92 0 64 1 33 1 0
14 98 0 88 1 47 1 0
11 83 0 44 1 23 1 0
13 78 1 72 1 57 1 0
30 71 0 63 1 33 1 0
12 98 1 96 1 56 1 0
22 108 0 57 1 40 1 0
16 59 1 35 1 34 1 0

